c FILE /home/rafael/Documents/HappySet/MIHS/inputs/happygen/output/graph_d_regular_k20_p0.3_v100_20241127_084130.txt
c SOURCE This is a d-regular graph formed for the happy graph colouring problem.
c DESCRIPTION It was generated using the problem generator of Rhyd Lewis
c
c GRAPH STATS
c Seed                             = -205929207
c Number of Nodes                  = 100
c Number of colours k              = 20
c Number of pre-assignments        = 30
c Degree of all vertices           = 6
c Density                          = 0.0606061
c 
c The degrees of nodes 1 to 100, respectively, are as follows 
c [6, 6, 6, 6, 6, 6, 6, 6, 6, 6, 6, 6, 6, 6, 6, 6, 6, 6, 6, 6, 6, 6, 6, 6, 6, 6, 
c  6, 6, 6, 6, 6, 6, 6, 6, 6, 6, 6, 6, 6, 6, 6, 6, 6, 6, 6, 6, 6, 6, 6, 6, 6, 
c  6, 6, 6, 6, 6, 6, 6, 6, 6, 6, 6, 6, 6, 6, 6, 6, 6, 6, 6, 6, 6, 6, 6, 6, 6, 
c  6, 6, 6, 6, 6, 6, 6, 6, 6, 6, 6, 6, 6, 6, 6, 6, 6, 6, 6, 6, 6, 6, 6, 6] 
c  
p edge 100 300 20
e 1 36
e 1 49
e 1 53
e 1 74
e 1 92
e 1 96
e 2 9
e 2 43
e 2 50
e 2 62
e 2 76
e 2 89
e 3 31
e 3 39
e 3 48
e 3 51
e 3 62
e 3 96
e 4 35
e 4 51
e 4 56
e 4 80
e 4 99
e 4 100
e 5 25
e 5 38
e 5 43
e 5 58
e 5 86
e 5 91
e 6 7
e 6 24
e 6 29
e 6 71
e 6 79
e 6 86
e 7 14
e 7 55
e 7 69
e 7 92
e 7 97
e 8 29
e 8 42
e 8 56
e 8 72
e 8 76
e 8 97
e 9 20
e 9 37
e 9 45
e 9 54
e 9 78
e 10 24
e 10 47
e 10 82
e 10 93
e 10 94
e 10 95
e 11 22
e 11 28
e 11 33
e 11 63
e 11 64
e 11 75
e 12 16
e 12 27
e 12 28
e 12 52
e 12 53
e 12 90
e 13 17
e 13 35
e 13 61
e 13 64
e 13 86
e 13 95
e 14 32
e 14 36
e 14 44
e 14 55
e 14 65
e 15 44
e 15 48
e 15 68
e 15 70
e 15 91
e 15 98
e 16 19
e 16 35
e 16 65
e 16 66
e 16 77
e 17 21
e 17 27
e 17 55
e 17 87
e 17 93
e 18 24
e 18 28
e 18 30
e 18 60
e 18 71
e 18 92
e 19 20
e 19 21
e 19 25
e 19 74
e 19 83
e 20 28
e 20 31
e 20 48
e 20 90
e 21 79
e 21 85
e 21 86
e 21 91
e 22 35
e 22 44
e 22 59
e 22 87
e 22 97
e 23 30
e 23 32
e 23 43
e 23 46
e 23 81
e 23 88
e 24 47
e 24 76
e 24 87
e 25 59
e 25 62
e 25 66
e 25 74
e 26 41
e 26 42
e 26 63
e 26 65
e 26 86
e 26 100
e 27 31
e 27 34
e 27 53
e 27 69
e 28 36
e 28 71
e 29 38
e 29 50
e 29 54
e 29 75
e 30 46
e 30 52
e 30 54
e 30 86
e 31 39
e 31 59
e 31 91
e 32 49
e 32 61
e 32 84
e 32 92
e 33 38
e 33 59
e 33 61
e 33 69
e 33 94
e 34 42
e 34 46
e 34 79
e 34 87
e 34 89
e 35 67
e 35 81
e 36 42
e 36 47
e 36 94
e 37 38
e 37 45
e 37 69
e 37 99
e 37 100
e 38 57
e 38 92
e 39 53
e 39 61
e 39 67
e 39 97
e 40 52
e 40 63
e 40 64
e 40 75
e 40 81
e 40 95
e 41 57
e 41 62
e 41 82
e 41 85
e 41 90
e 42 45
e 42 50
e 43 50
e 43 56
e 43 90
e 44 51
e 44 89
e 44 98
e 45 79
e 45 81
e 45 89
e 46 57
e 46 75
e 46 83
e 47 57
e 47 65
e 47 94
e 48 71
e 48 73
e 48 74
e 49 57
e 49 81
e 49 85
e 49 93
e 50 63
e 50 67
e 51 55
e 51 73
e 51 75
e 52 65
e 52 69
e 52 88
e 53 62
e 53 64
e 54 59
e 54 78
e 54 97
e 55 72
e 55 94
e 56 73
e 56 77
e 56 80
e 57 92
e 58 59
e 58 65
e 58 66
e 58 72
e 58 82
e 60 70
e 60 73
e 60 98
e 60 99
e 60 100
e 61 68
e 61 84
e 62 75
e 63 84
e 63 95
e 64 70
e 64 78
e 66 68
e 66 88
e 66 100
e 67 69
e 67 85
e 67 98
e 68 88
e 68 95
e 68 99
e 70 74
e 70 87
e 70 93
e 71 73
e 71 78
e 72 76
e 72 78
e 72 98
e 73 91
e 74 96
e 76 80
e 76 83
e 77 83
e 77 87
e 77 93
e 77 99
e 78 81
e 79 82
e 79 84
e 80 84
e 80 93
e 80 96
e 82 97
e 82 100
e 83 84
e 83 88
e 85 88
e 85 90
e 89 91
e 89 95
e 90 94
e 96 98
e 96 99
n 5 3
n 7 15
n 10 2
n 17 14
n 19 18
n 22 17
n 23 4
n 30 4
n 31 16
n 33 9
n 35 17
n 36 13
n 40 11
n 48 8
n 53 1
n 56 7
n 57 12
n 62 1
n 63 11
n 65 6
n 66 10
n 70 19
n 71 8
n 72 5
n 76 5
n 82 2
n 84 11
n 89 20
n 96 5
n 98 5
